c description: Random 3-CNF over 20 variables and 85 clauses
c generator: CNFgen (0.9.2)
c copyright: (C) 2012-2022 Massimo Lauria <massimo.lauria@uniroma1.it>
c url: https://massimolauria.net/cnfgen
c command line: cnfgen --output CNF_4.28/20_bit_85_928.cnf randkcnf 3 20 85
c
p cnf 20 85
16 18 -20 0
-6 -8 -14 0
5 10 19 0
-2 -7 16 0
2 -10 20 0
-6 -13 -18 0
4 14 17 0
-3 10 -17 0
-2 -10 18 0
-5 14 -17 0
-2 10 15 0
2 -8 17 0
6 8 -10 0
-5 -11 -15 0
-2 12 -19 0
-1 -8 -11 0
-2 6 -13 0
4 -14 18 0
-1 4 -8 0
-3 5 9 0
1 9 -19 0
-6 7 -14 0
14 17 -20 0
3 10 -19 0
2 8 20 0
1 -13 15 0
-1 5 -9 0
-7 12 15 0
3 -8 -17 0
-5 -13 14 0
9 17 -18 0
-8 -9 -11 0
5 -7 -20 0
-2 11 16 0
-2 10 18 0
1 -15 17 0
1 5 13 0
1 9 -10 0
4 14 15 0
1 7 -15 0
10 19 -20 0
8 13 15 0
-7 -8 10 0
6 16 -19 0
-5 -8 19 0
9 12 -14 0
-4 -10 -15 0
-5 6 -16 0
-6 11 -18 0
-4 -7 -12 0
15 17 18 0
2 -3 14 0
2 -13 15 0
-5 -8 12 0
-3 -8 18 0
6 -13 18 0
-12 14 17 0
-5 6 11 0
-7 -12 17 0
-7 -12 -15 0
1 -5 -16 0
-2 -9 -12 0
-8 9 -16 0
-8 -10 13 0
-4 11 -16 0
-3 13 16 0
-7 14 -16 0
14 -17 -19 0
2 -7 8 0
-3 5 14 0
-14 18 20 0
-3 16 -19 0
3 7 -17 0
-6 -14 20 0
4 -7 -13 0
-11 13 15 0
1 -7 -20 0
15 -19 -20 0
-1 -3 5 0
-3 -17 -18 0
-9 11 -14 0
-5 -11 -16 0
8 12 -19 0
-2 -8 -18 0
-2 17 19 0
